%Tablero
sizefila = 6;
sizecolumna = 5;
margen = [|1, 1, 1, 1, 1
          |1, 0, 0, 0, 1
          |1, 0, 0, 0, 1
          |1, 0, 0, 1, 1
          |1, 1, 0, 0, 0
          |1, 1, 0, 0, 0|];

derecha =[|0,  0, 0, 0, 0
          |9,  0, 0, 0, 0
          |13, 0, 0, 0, 0
          |13, 0, 0, 0, 0
          |0,  7, 0, 0, 0
          |0,  19,0, 0, 0|];

abajo =  [|0, 9, 34,  4, 0
          |0, 0,  0,  0, 0
          |0, 0,  0,  0, 0
          |0, 0,  0, 11, 3
          |0, 0,  0,  0, 0
          |0, 0,  0,  0, 0|];